p edge 163 807
1 91
1 85
1 112
1 2
1 163
2 146
2 137
2 136
2 20
2 3
3 34
3 4
3 145
3 77
3 136
4 155
4 125
4 5
4 11
5 90
5 46
5 24
5 147
5 6
6 31
6 38
6 66
6 7
6 17
7 28
7 96
7 14
7 130
7 8
8 59
8 9
8 118
8 7
8 143
9 159
9 10
9 24
9 56
9 154
10 110
10 26
10 45
10 11
10 108
11 88
11 87
11 131
11 52
11 12
12 128
12 13
12 105
12 57
12 125
13 132
13 61
13 1
13 14
13 162
14 53
14 15
14 143
14 109
14 92
15 16
15 57
15 29
15 141
15 52
16 112
16 5
16 17
16 68
16 10
17 51
17 125
17 154
17 18
17 95
18 19
18 48
18 53
18 101
18 76
19 56
19 20
19 49
19 65
19 140
20 89
20 60
20 21
20 43
20 39
21 12
21 90
21 99
21 22
21 137
22 82
22 32
22 88
22 68
22 23
23 131
23 85
23 24
23 103
23 44
24 25
24 81
24 157
24 126
24 83
25 6
25 9
25 26
25 31
25 4
26 88
26 27
26 62
26 37
26 119
27 154
27 31
27 62
27 8
27 28
28 49
28 29
28 126
28 9
28 113
29 139
29 126
29 88
29 30
29 158
30 9
30 12
30 15
30 31
30 120
31 67
31 18
31 118
31 99
31 32
32 57
32 13
32 59
32 33
32 85
33 29
33 34
33 70
33 148
33 119
34 141
34 113
34 142
34 35
34 38
35 100
35 82
35 144
35 36
35 67
36 86
36 153
36 27
36 37
36 20
37 38
37 12
37 113
37 124
37 87
38 39
38 107
38 127
38 88
39 40
39 31
39 8
39 161
39 122
40 55
40 108
40 97
40 17
40 41
41 119
41 17
41 105
41 42
41 22
42 43
42 25
42 13
42 75
43 90
43 44
43 33
43 65
43 129
44 136
44 45
44 145
44 75
44 51
45 63
45 147
45 46
45 75
45 138
46 153
46 106
46 47
46 115
46 84
47 48
47 53
47 145
47 130
47 81
48 35
48 142
48 33
48 49
48 65
49 115
49 50
49 19
49 77
49 80
50 51
50 2
50 59
50 152
50 83
51 27
51 154
51 52
51 115
51 26
52 60
52 53
52 106
52 113
52 147
53 59
53 68
53 120
53 54
53 90
54 98
54 13
54 55
54 71
54 29
55 56
55 25
55 51
55 114
56 57
56 52
56 32
56 139
56 60
57 143
57 128
57 58
57 103
57 38
58 24
58 148
58 68
58 59
58 86
59 129
59 60
59 26
59 62
59 121
60 22
60 148
60 50
60 61
60 130
61 62
61 80
61 104
61 102
61 117
62 104
62 63
62 10
62 126
62 3
63 122
63 27
63 75
63 64
63 68
64 75
64 86
64 88
64 65
64 84
65 92
65 80
65 101
65 66
65 123
66 111
66 133
66 11
66 67
66 77
67 140
67 100
67 124
67 68
67 31
68 137
68 153
68 20
68 69
68 112
69 103
69 29
69 70
69 120
69 77
70 43
70 52
70 35
70 156
70 71
71 72
71 52
71 136
71 102
71 63
72 114
72 12
72 30
72 73
72 42
73 119
73 74
73 124
73 118
73 91
74 141
74 87
74 111
74 70
74 75
75 76
75 10
75 42
75 129
75 17
76 77
76 143
76 67
76 66
76 71
77 78
77 68
77 88
77 36
78 134
78 148
78 125
78 57
78 79
79 147
79 80
79 11
79 83
79 43
80 126
80 145
80 98
80 50
80 81
81 13
81 82
81 96
81 127
81 46
82 128
82 83
82 139
82 121
82 74
83 101
83 84
83 16
83 94
84 85
84 142
84 39
84 119
84 123
85 94
85 65
85 76
85 91
85 86
86 103
86 129
86 77
86 95
86 87
87 88
87 113
87 12
87 36
87 33
88 89
88 63
88 70
88 91
88 34
89 157
89 5
89 75
89 90
89 34
90 143
90 113
90 91
90 33
90 1
91 92
91 57
91 25
91 125
91 23
92 4
92 41
92 134
92 93
92 128
93 41
93 117
93 21
93 156
93 94
94 100
94 19
94 129
94 109
94 95
95 137
95 8
95 145
95 82
95 96
96 97
96 103
96 133
96 10
96 102
97 163
97 69
97 11
97 98
97 136
98 148
98 27
98 99
98 34
98 85
99 54
99 131
99 100
99 141
99 95
100 59
100 81
100 60
100 101
100 66
101 36
101 7
101 19
101 69
101 102
102 125
102 103
102 46
102 31
102 52
103 106
103 144
103 104
103 21
103 134
104 77
104 72
104 34
104 105
104 111
105 63
105 11
105 60
105 106
105 113
106 157
106 107
106 55
106 44
106 43
107 147
107 108
107 28
107 36
107 81
108 32
108 132
108 109
108 68
108 20
109 68
109 31
109 85
109 110
109 52
110 66
110 15
110 116
110 9
110 111
111 27
111 120
111 112
111 40
111 28
112 104
112 33
112 108
112 158
112 113
113 114
113 5
113 112
113 143
113 99
114 146
114 100
114 50
114 115
114 94
115 50
115 130
115 59
115 116
115 81
116 64
116 159
116 35
116 92
116 117
117 104
117 27
117 62
117 118
117 8
118 16
118 119
118 132
118 79
118 114
119 25
119 48
119 123
119 120
119 152
120 121
120 107
120 72
120 45
120 95
121 122
121 50
121 139
121 29
121 39
122 90
122 51
122 27
122 123
122 42
123 124
123 137
123 125
123 128
123 22
124 153
124 125
124 33
124 162
124 75
125 51
125 126
125 31
125 88
125 28
126 31
126 127
126 148
126 14
126 140
127 131
127 111
127 146
127 128
128 94
128 156
128 144
128 29
128 129
129 134
129 130
129 98
129 149
129 115
130 66
130 159
130 134
130 115
130 131
131 132
131 105
131 75
131 54
131 148
132 30
132 8
132 130
132 133
132 140
133 152
133 134
133 74
133 66
133 39
134 100
134 135
134 128
134 131
134 101
135 128
135 77
135 38
135 136
135 50
136 137
136 18
136 129
136 21
136 141
137 138
137 94
137 112
137 54
137 134
138 75
138 41
138 85
138 140
138 139
139 140
139 29
139 106
139 65
139 31
140 13
140 141
140 131
140 5
140 118
141 142
141 79
141 70
141 154
141 39
142 143
142 30
142 130
142 95
142 85
143 57
143 84
143 149
143 144
143 5
144 145
144 109
144 40
144 121
144 115
145 146
145 114
145 39
145 128
145 54
146 133
146 20
146 147
146 6
146 15
147 94
147 141
147 79
147 14
147 148
148 149
148 81
148 30
148 34
148 13
149 150
149 99
149 40
149 71
149 46
150 149
150 151
150 152
150 33
150 39
151 50
151 98
151 152
151 84
151 4
152 69
152 63
152 142
152 153
152 27
153 87
153 154
153 52
153 70
153 41
154 107
154 101
154 155
154 28
154 121
155 9
155 67
155 19
155 113
155 156
156 59
156 124
156 24
156 157
157 99
157 143
157 76
157 111
157 158
158 159
158 80
158 5
158 55
158 9
159 91
159 10
159 57
159 53
159 160
160 102
160 104
160 63
160 161
160 121
161 162
161 119
161 58
161 21
161 42
162 54
162 133
162 115
162 163
162 73
163 87
163 1
163 99
163 158
163 135
